p cnf 156 792
-1 -61 0
-1 -62 0
61 -61 0
62 -62 0
-21 -67 0
-21 -68 0
67 -67 0
68 -68 0
-41 -73 0
-41 -74 0
73 -73 0
74 -74 0
2 -61 0
2 -62 0
61 -61 0
62 -62 0
22 -67 0
22 -68 0
67 -67 0
68 -68 0
42 -73 0
42 -74 0
73 -73 0
74 -74 0
-3 -61 0
-3 -62 0
61 -61 0
62 -62 0
-23 -67 0
-23 -68 0
67 -67 0
68 -68 0
-43 -73 0
-43 -74 0
73 -73 0
74 -74 0
4 -61 0
4 -62 0
61 -61 0
62 -62 0
24 -67 0
24 -68 0
67 -67 0
68 -68 0
44 -73 0
44 -74 0
73 -73 0
74 -74 0
5 -61 0
5 -62 0
61 -61 0
62 -62 0
25 -67 0
25 -68 0
67 -67 0
68 -68 0
45 -73 0
45 -74 0
73 -73 0
74 -74 0
6 -61 0
6 -62 0
61 -61 0
62 -62 0
26 -67 0
26 -68 0
67 -67 0
68 -68 0
46 -73 0
46 -74 0
73 -73 0
74 -74 0
7 -61 0
7 -62 0
61 -61 0
62 -62 0
27 -67 0
27 -68 0
67 -67 0
68 -68 0
47 -73 0
47 -74 0
73 -73 0
74 -74 0
8 -61 0
8 -62 0
61 -61 0
62 -62 0
28 -67 0
28 -68 0
67 -67 0
68 -68 0
48 -73 0
48 -74 0
73 -73 0
74 -74 0
9 -61 0
9 -62 0
61 -61 0
62 -62 0
29 -67 0
29 -68 0
67 -67 0
68 -68 0
49 -73 0
49 -74 0
73 -73 0
74 -74 0
10 -61 0
10 -62 0
61 -61 0
62 -62 0
30 -67 0
30 -68 0
67 -67 0
68 -68 0
50 -73 0
50 -74 0
73 -73 0
74 -74 0
11 -61 0
11 -62 0
61 -61 0
62 -62 0
31 -67 0
31 -68 0
67 -67 0
68 -68 0
51 -73 0
51 -74 0
73 -73 0
74 -74 0
12 -79 -61 0
-12 79 -61 0
12 79 -62 0
-12 -79 -62 0
32 -79 -67 0
-32 79 -67 0
32 79 -68 0
-32 -79 -68 0
52 -79 -73 0
-52 79 -73 0
52 79 -74 0
-52 -79 -74 0
13 -61 0
13 -62 0
61 -61 0
62 -62 0
33 -67 0
33 -68 0
67 -67 0
68 -68 0
53 -73 0
53 -74 0
73 -73 0
74 -74 0
14 -61 0
14 -62 0
61 -61 0
62 -62 0
34 -67 0
34 -68 0
67 -67 0
68 -68 0
54 -73 0
54 -74 0
73 -73 0
74 -74 0
15 -61 0
15 -62 0
61 -61 0
62 -62 0
35 -67 0
35 -68 0
67 -67 0
68 -68 0
55 -73 0
55 -74 0
73 -73 0
74 -74 0
16 -61 0
16 -62 0
61 -61 0
62 -62 0
36 -67 0
36 -68 0
67 -67 0
68 -68 0
56 -73 0
56 -74 0
73 -73 0
74 -74 0
-17 -61 0
-17 -62 0
61 -61 0
62 -62 0
-37 -67 0
-37 -68 0
67 -67 0
68 -68 0
-57 -73 0
-57 -74 0
73 -73 0
74 -74 0
-18 -61 0
-18 -62 0
61 -61 0
62 -62 0
-38 -67 0
-38 -68 0
67 -67 0
68 -68 0
-58 -73 0
-58 -74 0
73 -73 0
74 -74 0
-19 -61 0
-19 -62 0
61 -61 0
62 -62 0
-39 -67 0
-39 -68 0
67 -67 0
68 -68 0
-59 -73 0
-59 -74 0
73 -73 0
74 -74 0
-20 -61 0
-20 -62 0
61 -61 0
62 -62 0
-40 -67 0
-40 -68 0
67 -67 0
68 -68 0
-60 -73 0
-60 -74 0
73 -73 0
74 -74 0
-139 61 0
139 -61 0
-140 62 0
139 -62 0
-139 -61 0
-140 -62 0
-145 61 139 0
145 -61 0
145 -139 0
-146 62 140 0
146 -62 0
146 -140 0
-145 -67 0
-146 -68 0
-151 67 145 0
151 -67 0
151 -145 0
-152 68 146 0
152 -68 0
152 -146 0
-151 -73 0
-152 -74 0
151 0
152 0
1 -80 -63 0
-1 80 -63 0
1 80 -64 0
-1 -80 -64 0
21 -80 -69 0
-21 80 -69 0
21 80 -70 0
-21 -80 -70 0
41 -80 -75 0
-41 80 -75 0
41 80 -76 0
-41 -80 -76 0
2 -81 -63 0
-2 81 -63 0
2 81 -64 0
-2 -81 -64 0
22 -81 -69 0
-22 81 -69 0
22 81 -70 0
-22 -81 -70 0
42 -81 -75 0
-42 81 -75 0
42 81 -76 0
-42 -81 -76 0
3 -82 -63 0
-3 82 -63 0
3 82 -64 0
-3 -82 -64 0
23 -82 -69 0
-23 82 -69 0
23 82 -70 0
-23 -82 -70 0
43 -82 -75 0
-43 82 -75 0
43 82 -76 0
-43 -82 -76 0
4 -83 -63 0
-4 83 -63 0
4 83 -64 0
-4 -83 -64 0
24 -83 -69 0
-24 83 -69 0
24 83 -70 0
-24 -83 -70 0
44 -83 -75 0
-44 83 -75 0
44 83 -76 0
-44 -83 -76 0
5 -63 0
5 -64 0
63 -63 0
64 -64 0
25 -69 0
25 -70 0
69 -69 0
70 -70 0
45 -75 0
45 -76 0
75 -75 0
76 -76 0
6 -63 0
6 -64 0
63 -63 0
64 -64 0
26 -69 0
26 -70 0
69 -69 0
70 -70 0
46 -75 0
46 -76 0
75 -75 0
76 -76 0
7 -63 0
7 -64 0
63 -63 0
64 -64 0
27 -69 0
27 -70 0
69 -69 0
70 -70 0
47 -75 0
47 -76 0
75 -75 0
76 -76 0
8 -63 0
8 -64 0
63 -63 0
64 -64 0
28 -69 0
28 -70 0
69 -69 0
70 -70 0
48 -75 0
48 -76 0
75 -75 0
76 -76 0
9 -63 0
9 -64 0
63 -63 0
64 -64 0
29 -69 0
29 -70 0
69 -69 0
70 -70 0
49 -75 0
49 -76 0
75 -75 0
76 -76 0
10 -63 0
10 -64 0
63 -63 0
64 -64 0
30 -69 0
30 -70 0
69 -69 0
70 -70 0
50 -75 0
50 -76 0
75 -75 0
76 -76 0
11 -63 0
11 -64 0
63 -63 0
64 -64 0
31 -69 0
31 -70 0
69 -69 0
70 -70 0
51 -75 0
51 -76 0
75 -75 0
76 -76 0
12 -84 -63 0
-12 84 -63 0
12 84 -64 0
-12 -84 -64 0
32 -84 -69 0
-32 84 -69 0
32 84 -70 0
-32 -84 -70 0
52 -84 -75 0
-52 84 -75 0
52 84 -76 0
-52 -84 -76 0
13 -85 -63 0
-13 85 -63 0
13 85 -64 0
-13 -85 -64 0
33 -85 -69 0
-33 85 -69 0
33 85 -70 0
-33 -85 -70 0
53 -85 -75 0
-53 85 -75 0
53 85 -76 0
-53 -85 -76 0
14 -86 -63 0
-14 86 -63 0
14 86 -64 0
-14 -86 -64 0
34 -86 -69 0
-34 86 -69 0
34 86 -70 0
-34 -86 -70 0
54 -86 -75 0
-54 86 -75 0
54 86 -76 0
-54 -86 -76 0
15 -87 -63 0
-15 87 -63 0
15 87 -64 0
-15 -87 -64 0
35 -87 -69 0
-35 87 -69 0
35 87 -70 0
-35 -87 -70 0
55 -87 -75 0
-55 87 -75 0
55 87 -76 0
-55 -87 -76 0
16 -63 0
16 -64 0
63 -63 0
64 -64 0
36 -69 0
36 -70 0
69 -69 0
70 -70 0
56 -75 0
56 -76 0
75 -75 0
76 -76 0
-17 -63 0
-17 -64 0
63 -63 0
64 -64 0
-37 -69 0
-37 -70 0
69 -69 0
70 -70 0
-57 -75 0
-57 -76 0
75 -75 0
76 -76 0
-18 -63 0
-18 -64 0
63 -63 0
64 -64 0
-38 -69 0
-38 -70 0
69 -69 0
70 -70 0
-58 -75 0
-58 -76 0
75 -75 0
76 -76 0
-19 -63 0
-19 -64 0
63 -63 0
64 -64 0
-39 -69 0
-39 -70 0
69 -69 0
70 -70 0
-59 -75 0
-59 -76 0
75 -75 0
76 -76 0
-20 -63 0
-20 -64 0
63 -63 0
64 -64 0
-40 -69 0
-40 -70 0
69 -69 0
70 -70 0
-60 -75 0
-60 -76 0
75 -75 0
76 -76 0
-141 63 0
141 -63 0
-142 64 0
141 -64 0
-141 -63 0
-142 -64 0
-147 63 141 0
147 -63 0
147 -141 0
-148 64 142 0
148 -64 0
148 -142 0
-147 -69 0
-148 -70 0
-153 69 147 0
153 -69 0
153 -147 0
-154 70 148 0
154 -70 0
154 -148 0
-153 -75 0
-154 -76 0
153 0
154 0
1 -65 0
1 -66 0
65 -65 0
66 -66 0
21 -71 0
21 -72 0
71 -71 0
72 -72 0
41 -77 0
41 -78 0
77 -77 0
78 -78 0
2 -65 0
2 -66 0
65 -65 0
66 -66 0
22 -71 0
22 -72 0
71 -71 0
72 -72 0
42 -77 0
42 -78 0
77 -77 0
78 -78 0
-3 -65 0
-3 -66 0
65 -65 0
66 -66 0
-23 -71 0
-23 -72 0
71 -71 0
72 -72 0
-43 -77 0
-43 -78 0
77 -77 0
78 -78 0
4 -65 0
4 -66 0
65 -65 0
66 -66 0
24 -71 0
24 -72 0
71 -71 0
72 -72 0
44 -77 0
44 -78 0
77 -77 0
78 -78 0
-5 -65 0
-5 -66 0
65 -65 0
66 -66 0
-25 -71 0
-25 -72 0
71 -71 0
72 -72 0
-45 -77 0
-45 -78 0
77 -77 0
78 -78 0
6 -65 0
6 -66 0
65 -65 0
66 -66 0
26 -71 0
26 -72 0
71 -71 0
72 -72 0
46 -77 0
46 -78 0
77 -77 0
78 -78 0
7 -65 0
7 -66 0
65 -65 0
66 -66 0
27 -71 0
27 -72 0
71 -71 0
72 -72 0
47 -77 0
47 -78 0
77 -77 0
78 -78 0
8 -88 -65 0
-8 88 -65 0
8 88 -66 0
-8 -88 -66 0
28 -88 -71 0
-28 88 -71 0
28 88 -72 0
-28 -88 -72 0
48 -88 -77 0
-48 88 -77 0
48 88 -78 0
-48 -88 -78 0
9 -65 0
9 -66 0
65 -65 0
66 -66 0
29 -71 0
29 -72 0
71 -71 0
72 -72 0
49 -77 0
49 -78 0
77 -77 0
78 -78 0
10 -65 0
10 -66 0
65 -65 0
66 -66 0
30 -71 0
30 -72 0
71 -71 0
72 -72 0
50 -77 0
50 -78 0
77 -77 0
78 -78 0
11 -65 0
11 -66 0
65 -65 0
66 -66 0
31 -71 0
31 -72 0
71 -71 0
72 -72 0
51 -77 0
51 -78 0
77 -77 0
78 -78 0
12 -65 0
12 -66 0
65 -65 0
66 -66 0
32 -71 0
32 -72 0
71 -71 0
72 -72 0
52 -77 0
52 -78 0
77 -77 0
78 -78 0
-13 -65 0
-13 -66 0
65 -65 0
66 -66 0
-33 -71 0
-33 -72 0
71 -71 0
72 -72 0
-53 -77 0
-53 -78 0
77 -77 0
78 -78 0
-14 -65 0
-14 -66 0
65 -65 0
66 -66 0
-34 -71 0
-34 -72 0
71 -71 0
72 -72 0
-54 -77 0
-54 -78 0
77 -77 0
78 -78 0
-15 -65 0
-15 -66 0
65 -65 0
66 -66 0
-35 -71 0
-35 -72 0
71 -71 0
72 -72 0
-55 -77 0
-55 -78 0
77 -77 0
78 -78 0
16 -65 0
16 -66 0
65 -65 0
66 -66 0
36 -71 0
36 -72 0
71 -71 0
72 -72 0
56 -77 0
56 -78 0
77 -77 0
78 -78 0
-17 -65 0
-17 -66 0
65 -65 0
66 -66 0
-37 -71 0
-37 -72 0
71 -71 0
72 -72 0
-57 -77 0
-57 -78 0
77 -77 0
78 -78 0
-18 -65 0
-18 -66 0
65 -65 0
66 -66 0
-38 -71 0
-38 -72 0
71 -71 0
72 -72 0
-58 -77 0
-58 -78 0
77 -77 0
78 -78 0
-19 -65 0
-19 -66 0
65 -65 0
66 -66 0
-39 -71 0
-39 -72 0
71 -71 0
72 -72 0
-59 -77 0
-59 -78 0
77 -77 0
78 -78 0
-20 -65 0
-20 -66 0
65 -65 0
66 -66 0
-40 -71 0
-40 -72 0
71 -71 0
72 -72 0
-60 -77 0
-60 -78 0
77 -77 0
78 -78 0
-143 65 0
143 -65 0
-144 66 0
143 -66 0
-143 -65 0
-144 -66 0
-149 65 143 0
149 -65 0
149 -143 0
-150 66 144 0
150 -66 0
150 -144 0
-149 -71 0
-150 -72 0
-155 71 149 0
155 -71 0
155 -149 0
-156 72 150 0
156 -72 0
156 -150 0
-155 -77 0
-156 -78 0
155 0
156 0
